results/res_prop_muc/res_Cimatti_mathsat_cores/QF_UF/PEQ014_size9.smt.smt2.out

real	7m4.465s
user	6m58.278s
sys	0m6.216s
